100
128
25
62
48
17
32
41
54
56
43
63
3
37
63
16
39
50
59
6
5
10
44
1
6
10
51
18
11
24
9
60
14
10
11
9
25
51
49
15
47
12
13
25
20
29
38
34
51
25
22
37
30
44
21
23
38
47
14
28
36
5
34
12
2
45
30
33
37
42
8
39
46
61
32
4
52
6
44
41
2
55
29
61
36
53
31
32
31
41
52
50
32
31
4
38
64
28
59
5
1
64